RSW08
Position Depot: Center
Horizon for Depot: Small
Position of customers: Random
Distribution of the demand: Medium
Width of time windows: Wide
Distribution of the service: Large

VEHICLE 
NUMBER 	 CAPACITY 
 12 	 	 129 
 
CUSTOMER
CUST NO. 	 XCOORD.  	 YCOORD. 	 DEMAND 	 READY TIME 	 DUE DATE 	 SERVICE TIME 
 0 	 	 500 	 	 500 	 	 0 	 	 0 	 	 2038 	 	 0 
  1 	 	 72 	 	 632 	 	 5 	 	 1371 	 	 1801 	 	 198 
  2 	 	 506 	 	 628 	 	 7 	 	 399 	 	 614 	 	 146 
  3 	 	 109 	 	 762 	 	 10 	 	 1513 	 	 1790 	 	 164 
  4 	 	 710 	 	 154 	 	 10 	 	 239 	 	 445 	 	 153 
  5 	 	 387 	 	 334 	 	 8 	 	 1543 	 	 2038 	 	 136 
  6 	 	 17 	 	 744 	 	 2 	 	 1360 	 	 1627 	 	 189 
  7 	 	 252 	 	 716 	 	 4 	 	 118 	 	 361 	 	 135 
  8 	 	 102 	 	 196 	 	 58 	 	 1625 	 	 1979 	 	 117 
  9 	 	 345 	 	 148 	 	 2 	 	 999 	 	 1401 	 	 161 
  10 	 	 948 	 	 230 	 	 8 	 	 207 	 	 688 	 	 170 
  11 	 	 879 	 	 795 	 	 8 	 	 1464 	 	 1958 	 	 127 
  12 	 	 743 	 	 307 	 	 6 	 	 1585 	 	 1933 	 	 192 
  13 	 	 28 	 	 649 	 	 8 	 	 1568 	 	 2038 	 	 195 
  14 	 	 175 	 	 644 	 	 10 	 	 1217 	 	 1560 	 	 188 
  15 	 	 145 	 	 973 	 	 67 	 	 709 	 	 1101 	 	 121 
  16 	 	 604 	 	 638 	 	 5 	 	 672 	 	 1080 	 	 172 
  17 	 	 428 	 	 782 	 	 3 	 	 1270 	 	 1744 	 	 178 
  18 	 	 876 	 	 387 	 	 2 	 	 1097 	 	 1535 	 	 185 
  19 	 	 695 	 	 536 	 	 4 	 	 1301 	 	 1699 	 	 196 
  20 	 	 78 	 	 291 	 	 7 	 	 211 	 	 518 	 	 178 
  21 	 	 415 	 	 569 	 	 5 	 	 1781 	 	 2021 	 	 130 
  22 	 	 404 	 	 100 	 	 8 	 	 1177 	 	 1524 	 	 132 
  23 	 	 881 	 	 447 	 	 4 	 	 528 	 	 893 	 	 129 
  24 	 	 355 	 	 829 	 	 51 	 	 286 	 	 744 	 	 115 
  25 	 	 772 	 	 493 	 	 6 	 	 1685 	 	 2038 	 	 106 
  26 	 	 39 	 	 272 	 	 7 	 	 119 	 	 612 	 	 110 
  27 	 	 342 	 	 868 	 	 6 	 	 1564 	 	 1916 	 	 196 
  28 	 	 893 	 	 232 	 	 7 	 	 692 	 	 1149 	 	 147 
  29 	 	 338 	 	 274 	 	 9 	 	 1126 	 	 1506 	 	 106 
  30 	 	 951 	 	 413 	 	 6 	 	 868 	 	 1082 	 	 115 
  31 	 	 339 	 	 618 	 	 9 	 	 51 	 	 383 	 	 117 
  32 	 	 221 	 	 0 	 	 8 	 	 1008 	 	 1210 	 	 109 
  33 	 	 922 	 	 129 	 	 9 	 	 1266 	 	 1490 	 	 100 
  34 	 	 628 	 	 70 	 	 8 	 	 1640 	 	 2038 	 	 145 
  35 	 	 429 	 	 17 	 	 3 	 	 268 	 	 537 	 	 175 
  36 	 	 80 	 	 210 	 	 65 	 	 118 	 	 561 	 	 140 
  37 	 	 244 	 	 928 	 	 87 	 	 140 	 	 548 	 	 149 
  38 	 	 537 	 	 683 	 	 4 	 	 1633 	 	 2038 	 	 133 
  39 	 	 846 	 	 870 	 	 5 	 	 1396 	 	 1709 	 	 121 
  40 	 	 819 	 	 368 	 	 5 	 	 1639 	 	 2025 	 	 112 
  41 	 	 717 	 	 354 	 	 3 	 	 1629 	 	 2038 	 	 110 
  42 	 	 940 	 	 74 	 	 4 	 	 454 	 	 673 	 	 127 
  43 	 	 280 	 	 143 	 	 10 	 	 1712 	 	 2008 	 	 184 
  44 	 	 695 	 	 35 	 	 10 	 	 1340 	 	 1594 	 	 130 
  45 	 	 789 	 	 20 	 	 5 	 	 376 	 	 616 	 	 161 
  46 	 	 38 	 	 524 	 	 57 	 	 1563 	 	 1983 	 	 151 
  47 	 	 403 	 	 598 	 	 8 	 	 584 	 	 946 	 	 159 
  48 	 	 782 	 	 743 	 	 66 	 	 911 	 	 1186 	 	 200 
  49 	 	 972 	 	 814 	 	 98 	 	 1008 	 	 1290 	 	 115 
  50 	 	 433 	 	 139 	 	 2 	 	 207 	 	 610 	 	 197 
  51 	 	 427 	 	 711 	 	 9 	 	 1152 	 	 1576 	 	 106 
  52 	 	 329 	 	 184 	 	 10 	 	 491 	 	 883 	 	 134 
  53 	 	 470 	 	 903 	 	 3 	 	 905 	 	 1308 	 	 131 
  54 	 	 155 	 	 759 	 	 6 	 	 1036 	 	 1340 	 	 131 
  55 	 	 888 	 	 859 	 	 1 	 	 802 	 	 1149 	 	 117 
  56 	 	 754 	 	 780 	 	 4 	 	 510 	 	 884 	 	 133 
  57 	 	 958 	 	 753 	 	 51 	 	 907 	 	 1144 	 	 130 
  58 	 	 415 	 	 590 	 	 61 	 	 813 	 	 1300 	 	 104 
  59 	 	 840 	 	 892 	 	 4 	 	 261 	 	 720 	 	 143 
  60 	 	 444 	 	 871 	 	 1 	 	 1435 	 	 1922 	 	 182 
  61 	 	 624 	 	 449 	 	 6 	 	 172 	 	 487 	 	 163 
  62 	 	 6 	 	 401 	 	 68 	 	 920 	 	 1342 	 	 101 
  63 	 	 293 	 	 148 	 	 58 	 	 1080 	 	 1486 	 	 100 
  64 	 	 438 	 	 496 	 	 3 	 	 283 	 	 543 	 	 140 
  65 	 	 648 	 	 504 	 	 2 	 	 454 	 	 835 	 	 126 
  66 	 	 856 	 	 79 	 	 7 	 	 1687 	 	 1949 	 	 173 
  67 	 	 873 	 	 419 	 	 58 	 	 831 	 	 1228 	 	 153 
  68 	 	 441 	 	 468 	 	 10 	 	 284 	 	 703 	 	 173 
  69 	 	 253 	 	 844 	 	 54 	 	 101 	 	 465 	 	 144 
  70 	 	 232 	 	 279 	 	 6 	 	 1221 	 	 1506 	 	 144 
  71 	 	 240 	 	 197 	 	 3 	 	 867 	 	 1147 	 	 121 
  72 	 	 145 	 	 699 	 	 1 	 	 1343 	 	 1738 	 	 147 
  73 	 	 346 	 	 491 	 	 6 	 	 575 	 	 891 	 	 160 
  74 	 	 421 	 	 892 	 	 4 	 	 930 	 	 1181 	 	 186 
  75 	 	 148 	 	 203 	 	 10 	 	 330 	 	 594 	 	 143 
  76 	 	 420 	 	 464 	 	 8 	 	 60 	 	 356 	 	 100 
  77 	 	 467 	 	 789 	 	 4 	 	 943 	 	 1374 	 	 180 
  78 	 	 76 	 	 585 	 	 5 	 	 82 	 	 475 	 	 196 
  79 	 	 617 	 	 705 	 	 3 	 	 137 	 	 561 	 	 139 
  80 	 	 701 	 	 311 	 	 80 	 	 796 	 	 1146 	 	 146 
  81 	 	 548 	 	 494 	 	 2 	 	 742 	 	 1229 	 	 122 
  82 	 	 468 	 	 677 	 	 6 	 	 438 	 	 707 	 	 133 
  83 	 	 392 	 	 345 	 	 10 	 	 -39 	 	 387 	 	 169 
  84 	 	 754 	 	 732 	 	 6 	 	 1259 	 	 1707 	 	 136 
  85 	 	 987 	 	 918 	 	 2 	 	 481 	 	 705 	 	 102 
  86 	 	 144 	 	 860 	 	 3 	 	 105 	 	 556 	 	 196 
  87 	 	 726 	 	 716 	 	 87 	 	 662 	 	 1024 	 	 150 
  88 	 	 516 	 	 221 	 	 10 	 	 1263 	 	 1475 	 	 153 
  89 	 	 650 	 	 349 	 	 4 	 	 329 	 	 637 	 	 116 
  90 	 	 499 	 	 194 	 	 6 	 	 43 	 	 336 	 	 110 
  91 	 	 181 	 	 978 	 	 7 	 	 529 	 	 749 	 	 185 
  92 	 	 447 	 	 626 	 	 62 	 	 900 	 	 1112 	 	 165 
  93 	 	 979 	 	 610 	 	 10 	 	 1608 	 	 1965 	 	 186 
  94 	 	 778 	 	 657 	 	 4 	 	 1657 	 	 1905 	 	 142 
  95 	 	 8 	 	 866 	 	 4 	 	 246 	 	 685 	 	 120 
  96 	 	 996 	 	 789 	 	 3 	 	 972 	 	 1254 	 	 158 
  97 	 	 364 	 	 858 	 	 5 	 	 1055 	 	 1472 	 	 155 
  98 	 	 458 	 	 685 	 	 7 	 	 1764 	 	 2038 	 	 155 
  99 	 	 539 	 	 258 	 	 6 	 	 411 	 	 830 	 	 161 
  100 	 	 736 	 	 616 	 	 2 	 	 554 	 	 804 	 	 121 
 